100
102
36 2
28 2
36 2
41 3
21 1
38 2
34 2
27 1
39 3
47 2
18 1
35 2
38 2
27 1
35 1
34 1
31 2
35 3
41 2
23 1
36 2
48 4
21 1
31 1
43 3
21 1
36 3
47 4
19 0
34 2
47 4
21 1
32 3
42 2
23 2
35 2
45 2
26 1
29 1
34 2
31 2
35 2
37 3
23 2
40 2
39 3
20 1
41 3
35 3
28 1
37 2
47 4
24 2
29 2
47 4
25 2
28 2
48 3
18 1
34 1
43 3
26 1
31 2
41 2
20 1
39 2
37 2
29 1
34 2
41 2
20 1
39 2
47 4
18 1
35 2
38 2
26 2
36 3
48 2
18 1
34 2
48 3
20 1
32 2
33 3
23 2
44 2
45 3
24 1
31 2
42 3
27 1
31 2
38 2
24 2
38 2
44 2
24 1
32 2
45 2
20 1
35 2
